set VV := 0 1 2 3 4 5 6 7 8 9 10 11 12 13 14 15 16 17 18 19 20 21 22 23 24 25 26 27 28 29 30 31 32 33 34 35 36 ;
set VS := 0 1 2 3 4 5 6 7 8 9 10 11 12 13 14 15 16 17 18 19 20 21 22 23 24 25 26 27 28 29 30 31 32 33 34 35 36 37 38 39 40 41 42 43 44 45 46 47 48 49 50 51 52 53 54 55 56 57 58 59 60 61 62 63 64 65 66 67 68 69 70 71 72 73 74 75 76 77 78 ;
param cv := 
0 13
1 12
2 18
3 16
4 23
5 20
6 12
7 20
8 23
9 21
10 25
11 11
12 19
13 12
14 21
15 10
16 11
17 16
18 10
19 14
20 22
21 14
22 14
23 21
24 13
25 11
26 17
27 21
28 17
29 11
30 14
31 19
32 14
33 20
34 12
35 14
36 19
;
param cs := 
0 29
1 24
2 40
3 26
4 32
5 28
6 31
7 25
8 35
9 37
10 21
11 35
12 36
13 34
14 21
15 31
16 29
17 21
18 20
19 21
20 33
21 29
22 25
23 32
24 35
25 39
26 38
27 29
28 39
29 29
30 23
31 25
32 38
33 26
34 35
35 26
36 28
37 22
38 30
39 34
40 21
41 40
42 22
43 33
44 40
45 22
46 23
47 20
48 36
49 32
50 39
51 24
52 38
53 40
54 30
55 40
56 40
57 28
58 35
59 36
60 20
61 34
62 23
63 32
64 37
65 36
66 22
67 34
68 22
69 33
70 39
71 33
72 30
73 32
74 26
75 22
76 37
77 39
78 29
;
param bv:	 0 1 2 3 4 5 6 7 8 9 10 11 12 13 14 15 16 17 18 19 20 21 22 23 24 25 26 27 28 29 30 31 32 33 34 35 36 := 
		0 0 0 0 21 0 0 0 0 0 0 0 0 15 0 16 0 0 0 0 0 0 0 0 0 0 0 0 0 0 0 0 0 0 0 0 0 0 
		1 0 0 0 0 0 0 0 0 0 0 0 0 0 0 12 0 0 0 0 0 0 0 0 0 0 0 0 25 18 0 0 0 0 0 0 0 0 
		2 0 0 0 17 0 0 0 0 0 0 0 0 0 0 0 0 0 0 18 10 0 0 0 0 0 0 0 0 0 0 0 0 0 0 0 0 0 
		3 0 0 0 0 0 0 0 0 0 0 0 0 0 0 0 0 0 0 0 0 0 0 0 10 0 0 24 0 0 0 0 0 0 0 0 0 0 
		4 0 0 0 0 0 0 0 0 0 0 0 17 0 0 0 0 0 0 0 0 0 0 10 0 19 0 0 0 0 11 0 0 0 0 0 0 0 
		5 0 0 0 0 0 0 0 0 19 25 0 21 0 0 0 22 0 0 0 20 0 0 0 20 11 0 0 0 0 17 0 0 0 23 0 0 0 
		6 0 0 0 0 0 0 0 0 0 0 23 0 0 0 0 0 0 20 0 0 0 16 0 0 0 0 0 0 0 0 0 0 12 0 0 0 0 
		7 0 0 0 0 0 0 0 0 0 14 0 0 0 0 0 0 0 0 0 0 0 0 0 0 0 0 19 0 21 0 0 0 0 0 15 0 0 
		8 0 0 0 0 0 0 0 0 0 20 0 0 0 0 0 0 0 0 0 0 0 0 24 0 0 0 0 0 0 0 0 0 0 0 10 0 16 
		9 0 0 0 0 0 0 0 0 0 0 0 0 0 0 21 0 0 0 0 0 0 0 0 0 0 0 0 0 0 0 0 0 0 19 0 0 0 
		10 0 0 0 0 0 0 0 0 0 0 0 0 0 0 12 0 0 12 0 0 16 0 0 0 0 0 0 0 0 0 0 14 0 0 0 0 0 
		11 0 0 0 0 0 0 0 0 0 0 0 0 0 0 0 0 0 0 0 0 0 0 0 0 0 0 0 0 0 0 0 0 13 0 0 0 0 
		12 0 0 0 0 0 0 0 0 0 0 0 0 0 0 0 0 0 0 0 0 0 0 0 0 0 0 0 20 0 0 0 0 0 0 0 0 0 
		13 0 0 0 0 0 0 0 0 0 0 0 0 0 0 0 0 10 0 0 0 0 0 0 0 0 0 0 0 0 0 0 0 0 0 0 21 0 
		14 0 0 0 0 0 0 0 0 0 0 0 0 0 0 0 0 0 0 0 0 11 0 0 0 0 0 0 0 0 0 22 0 0 0 0 0 0 
		15 0 0 0 0 0 0 0 0 0 0 0 0 0 0 0 0 0 0 0 15 0 0 0 0 0 0 0 0 0 0 0 0 0 0 0 0 0 
		16 0 0 0 0 0 0 0 0 0 0 0 0 0 0 0 0 0 0 0 0 0 0 0 0 23 0 15 13 0 0 0 0 0 0 0 10 0 
		17 0 0 0 0 0 0 0 0 0 0 0 0 0 0 0 0 0 0 0 19 0 0 0 0 0 0 0 0 0 0 0 0 0 0 0 0 0 
		18 0 0 0 0 0 0 0 0 0 0 0 0 0 0 0 0 0 0 0 17 0 12 0 0 11 0 0 0 0 0 0 0 0 0 0 0 0 
		19 0 0 0 0 0 0 0 0 0 0 0 0 0 0 0 0 0 0 0 0 0 0 0 0 0 0 0 0 0 11 0 0 0 0 0 0 0 
		20 0 0 0 0 0 0 0 0 0 0 0 0 0 0 0 0 0 0 0 0 0 0 0 0 0 10 0 16 0 0 0 0 0 0 0 0 0 
		21 0 0 0 0 0 0 0 0 0 0 0 0 0 0 0 0 0 0 0 0 0 0 0 0 0 0 0 0 0 0 0 0 13 0 0 0 0 
		22 0 0 0 0 0 0 0 0 0 0 0 0 0 0 0 0 0 0 0 0 0 0 0 19 0 0 23 0 17 0 0 10 0 0 0 0 17 
		23 0 0 0 0 0 0 0 0 0 0 0 0 0 0 0 0 0 0 0 0 0 0 0 0 13 13 0 0 0 0 0 0 11 0 11 0 0 
		24 0 0 0 0 0 0 0 0 0 0 0 0 0 0 0 0 0 0 0 0 0 0 0 0 0 0 0 0 0 0 0 21 0 0 0 0 0 
		25 0 0 0 0 0 0 0 0 0 0 0 0 0 0 0 0 0 0 0 0 0 0 0 0 0 0 0 0 0 0 0 0 0 12 0 13 0 
		26 0 0 0 0 0 0 0 0 0 0 0 0 0 0 0 0 0 0 0 0 0 0 0 0 0 0 0 0 0 0 0 12 0 0 0 0 0 
		27 0 0 0 0 0 0 0 0 0 0 0 0 0 0 0 0 0 0 0 0 0 0 0 0 0 0 0 0 23 0 0 0 0 23 0 14 0 
		28 0 0 0 0 0 0 0 0 0 0 0 0 0 0 0 0 0 0 0 0 0 0 0 0 0 0 0 0 0 0 12 0 0 0 0 0 15 
		29 0 0 0 0 0 0 0 0 0 0 0 0 0 0 0 0 0 0 0 0 0 0 0 0 0 0 0 0 0 0 0 21 0 19 0 0 0 
		30 0 0 0 0 0 0 0 0 0 0 0 0 0 0 0 0 0 0 0 0 0 0 0 0 0 0 0 0 0 0 0 16 0 0 0 0 0 
		31 0 0 0 0 0 0 0 0 0 0 0 0 0 0 0 0 0 0 0 0 0 0 0 0 0 0 0 0 0 0 0 0 19 23 0 0 11 
		32 0 0 0 0 0 0 0 0 0 0 0 0 0 0 0 0 0 0 0 0 0 0 0 0 0 0 0 0 0 0 0 0 0 0 0 0 0 
		33 0 0 0 0 0 0 0 0 0 0 0 0 0 0 0 0 0 0 0 0 0 0 0 0 0 0 0 0 0 0 0 0 0 0 0 0 19 
		34 0 0 0 0 0 0 0 0 0 0 0 0 0 0 0 0 0 0 0 0 0 0 0 0 0 0 0 0 0 0 0 0 0 0 0 0 0 
		35 0 0 0 0 0 0 0 0 0 0 0 0 0 0 0 0 0 0 0 0 0 0 0 0 0 0 0 0 0 0 0 0 0 0 0 0 0 
		36 0 0 0 0 0 0 0 0 0 0 0 0 0 0 0 0 0 0 0 0 0 0 0 0 0 0 0 0 0 0 0 0 0 0 0 0 0 
;
param bs:	 0 1 2 3 4 5 6 7 8 9 10 11 12 13 14 15 16 17 18 19 20 21 22 23 24 25 26 27 28 29 30 31 32 33 34 35 36 37 38 39 40 41 42 43 44 45 46 47 48 49 50 51 52 53 54 55 56 57 58 59 60 61 62 63 64 65 66 67 68 69 70 71 72 73 74 75 76 77 78 := 
		0 0 0 0 0 0 0 0 0 0 0 0 0 0 0 0 0 0 0 0 0 0 29 0 0 0 0 0 0 0 0 0 0 0 0 0 0 0 0 0 0 0 0 0 0 0 0 0 23 0 0 0 0 0 0 0 0 0 0 0 0 0 35 0 0 0 0 0 0 0 0 0 0 0 0 21 20 40 38 0 
		1 0 0 0 0 0 0 0 0 0 0 0 0 0 0 0 0 31 0 0 0 0 0 0 0 0 0 0 0 0 0 0 0 0 0 0 0 0 0 0 0 0 0 0 0 0 0 0 0 0 0 0 0 0 0 0 0 34 0 0 0 0 36 0 0 0 0 0 0 0 0 0 0 0 20 0 0 0 0 0 
		2 0 0 0 0 35 0 0 0 0 0 0 40 33 0 0 0 0 0 0 0 0 0 0 0 0 0 0 0 0 0 0 0 0 0 0 0 0 0 0 0 0 0 0 0 0 0 0 0 0 0 0 0 0 0 0 0 0 0 0 0 0 0 0 36 31 0 0 0 0 27 0 0 0 39 0 0 0 20 0 
		3 0 0 0 0 31 0 0 0 0 0 0 0 31 0 39 0 37 37 0 0 0 0 0 36 0 0 21 0 0 0 0 0 0 0 0 0 0 0 0 32 0 0 0 0 0 0 0 0 0 0 29 0 0 0 0 0 0 0 0 0 0 0 0 0 21 0 0 0 0 0 0 0 0 0 0 0 0 0 0 
		4 0 0 35 31 0 26 0 0 0 0 0 0 0 0 0 0 0 0 0 0 0 0 0 0 0 0 0 0 0 0 28 0 0 0 0 23 25 0 0 0 0 0 0 0 0 0 0 0 33 0 0 0 0 0 0 0 0 0 0 0 0 0 38 0 0 0 0 0 38 0 0 0 0 34 0 0 0 0 0 
		5 0 0 0 0 26 0 0 0 0 35 0 0 0 0 0 0 0 0 0 0 0 0 0 0 35 0 0 0 36 0 0 0 0 0 0 0 0 0 0 0 0 0 0 0 0 0 0 0 0 0 0 0 0 0 0 0 0 0 0 0 0 0 0 0 0 0 0 0 0 0 0 0 0 0 0 0 0 0 25 
		6 0 0 0 0 0 0 0 0 0 0 0 0 0 0 0 0 0 0 0 0 0 0 0 0 0 0 0 0 0 34 0 0 0 0 0 0 0 0 0 0 0 0 0 0 0 0 34 0 0 38 0 0 0 0 0 0 0 0 22 0 0 0 0 0 0 0 0 0 0 0 0 0 0 0 0 0 0 0 0 
		7 0 0 0 0 0 0 0 0 0 0 0 0 0 0 0 0 0 0 0 0 0 0 0 0 32 0 0 0 0 0 0 0 39 0 0 0 0 0 0 0 0 0 37 0 0 0 0 0 0 0 0 0 0 20 0 0 23 0 0 0 0 0 31 0 28 0 0 0 0 0 0 0 0 0 0 0 0 0 0 
		8 0 0 0 0 0 0 0 0 0 0 0 0 0 0 0 0 0 0 0 0 0 0 0 0 0 0 29 0 0 0 0 0 0 0 0 0 0 0 0 39 0 0 0 0 0 0 0 0 0 0 0 0 0 0 0 0 0 0 26 27 0 0 0 0 0 0 0 0 0 34 0 0 0 0 0 0 0 0 0 
		9 0 0 0 0 0 35 0 0 0 0 0 0 0 0 0 0 0 33 0 0 0 0 0 0 0 0 0 0 0 0 0 0 23 0 0 25 0 0 0 0 0 0 0 0 0 0 29 0 0 0 0 0 0 0 0 0 0 0 0 0 0 0 0 0 27 0 0 0 0 20 0 0 0 0 0 0 0 0 0 
		10 0 0 0 0 0 0 0 0 0 0 0 0 0 0 0 0 0 31 27 0 0 0 0 0 0 0 32 0 0 0 0 0 0 0 0 0 0 0 0 0 0 0 31 0 0 0 0 0 0 0 0 0 0 0 0 0 0 0 0 0 0 0 0 0 0 0 0 0 0 0 0 0 0 0 0 0 30 0 30 
		11 0 0 40 0 0 0 0 0 0 0 0 0 0 0 0 0 0 0 0 0 0 0 0 0 0 0 0 0 0 0 0 0 0 0 0 0 0 0 0 0 0 0 0 0 0 0 0 0 0 0 0 0 0 0 0 0 0 0 0 0 0 0 0 0 0 0 0 0 20 0 0 0 0 0 0 0 0 0 0 
		12 0 0 33 31 0 0 0 0 0 0 0 0 0 0 0 0 34 38 0 0 0 0 0 0 0 0 0 0 27 0 0 0 40 0 0 0 0 0 0 0 21 0 0 0 0 0 21 30 0 0 0 0 0 0 0 0 0 0 37 0 0 0 0 0 0 0 0 0 0 0 0 0 0 21 0 0 0 0 0 
		13 0 0 0 0 0 0 0 0 0 0 0 0 0 0 0 0 0 0 0 0 0 0 0 0 0 0 0 0 0 0 0 0 0 0 0 0 21 0 0 20 0 0 0 0 0 0 0 0 0 0 0 0 0 0 0 0 0 0 0 0 26 0 0 0 0 0 0 0 0 0 0 0 0 0 0 0 0 26 0 
		14 0 0 0 39 0 0 0 0 0 0 0 0 0 0 0 0 0 0 0 0 0 0 0 0 33 0 0 0 0 0 0 0 0 0 0 0 0 0 0 0 0 0 0 34 37 20 0 0 0 0 0 0 0 0 0 0 0 0 0 0 0 0 0 0 0 24 0 22 0 0 31 0 0 0 0 0 0 0 0 
		15 0 0 0 0 0 0 0 0 0 0 0 0 0 0 0 0 40 0 0 0 0 34 0 0 0 0 0 0 0 0 0 0 0 26 0 0 22 0 37 0 0 0 0 0 0 0 0 0 0 0 0 0 24 0 0 0 26 0 29 0 0 0 0 0 0 0 0 0 0 0 0 0 0 35 0 0 0 0 24 
		16 0 31 0 37 0 0 0 0 0 0 0 0 34 0 0 40 0 0 38 0 0 0 0 26 0 0 0 0 0 0 0 38 0 0 0 23 0 30 0 0 0 0 0 0 0 33 0 0 0 0 0 0 0 0 0 30 0 0 0 0 0 0 0 0 0 36 0 0 0 0 0 0 0 0 0 0 20 0 25 
		17 0 0 0 37 0 0 0 0 0 33 31 0 38 0 0 0 0 0 0 0 28 0 0 36 0 0 0 0 0 0 0 0 0 0 0 0 0 0 0 0 0 0 0 0 0 0 0 0 0 0 0 0 38 0 0 0 0 0 0 0 0 20 0 20 0 0 0 0 0 0 0 0 0 0 0 0 0 0 0 
		18 0 0 0 0 0 0 0 0 0 0 27 0 0 0 0 0 38 0 0 0 0 0 0 0 0 0 0 0 24 0 0 0 0 0 0 0 0 0 0 0 0 0 0 0 0 0 0 0 0 0 0 0 0 0 0 23 0 0 0 35 0 0 0 0 36 0 0 0 30 0 22 0 0 0 0 0 0 0 0 
		19 0 0 0 0 0 0 0 0 0 0 0 0 0 0 0 0 0 0 0 0 0 26 34 23 0 0 0 0 0 0 0 0 0 33 0 0 0 22 0 0 0 0 30 0 0 0 26 0 0 0 0 0 0 0 0 0 0 0 0 0 0 0 0 0 0 0 0 20 0 0 0 0 0 32 0 0 0 0 0 
		20 0 0 0 0 0 0 0 0 0 0 0 0 0 0 0 0 0 28 0 0 0 0 0 0 0 0 0 0 0 0 0 32 0 0 0 31 0 21 0 0 0 0 0 0 0 25 0 0 0 0 0 0 0 0 0 0 0 0 0 24 0 0 0 0 24 0 0 0 0 0 0 0 0 0 33 0 0 0 0 
		21 29 0 0 0 0 0 0 0 0 0 0 0 0 0 0 34 0 0 0 26 0 0 0 0 0 0 40 0 0 0 0 0 0 0 0 0 0 0 0 0 0 0 0 0 0 0 0 0 0 0 0 0 33 0 0 0 0 0 39 20 0 0 0 0 0 0 0 0 0 0 0 0 0 0 0 34 0 0 34 
		22 0 0 0 0 0 0 0 0 0 0 0 0 0 0 0 0 0 0 0 34 0 0 0 0 0 0 0 0 0 0 20 0 0 0 0 0 0 0 0 0 38 0 27 0 0 0 0 0 0 0 0 0 0 0 0 0 0 0 0 0 25 0 0 0 0 0 0 0 0 0 0 0 0 25 0 0 0 0 0 
		23 0 0 0 36 0 0 0 0 0 0 0 0 0 0 0 0 26 36 0 23 0 0 0 0 0 0 0 0 0 0 0 0 0 0 0 0 0 0 0 0 0 0 32 0 0 28 0 0 0 0 0 0 0 0 0 0 0 0 36 0 0 22 0 0 0 0 0 0 0 0 0 0 0 25 25 0 0 0 0 
		24 0 0 0 0 0 35 0 32 0 0 0 0 0 0 33 0 0 0 0 0 0 0 0 0 0 22 0 0 0 0 0 0 0 0 0 0 36 0 0 0 0 0 0 0 0 0 0 0 0 0 0 0 0 0 0 0 0 0 0 0 0 0 0 0 0 0 0 0 0 0 0 0 27 0 0 0 0 0 0 
		25 0 0 0 0 0 0 0 0 0 0 0 0 0 0 0 0 0 0 0 0 0 0 0 0 22 0 0 0 0 0 0 0 0 0 0 31 0 0 0 0 0 0 0 0 0 0 0 0 0 0 0 0 0 0 0 0 0 0 0 0 25 0 0 23 0 0 0 0 0 0 0 0 0 0 0 0 0 0 26 
		26 0 0 0 21 0 0 0 0 29 0 32 0 0 0 0 0 0 0 0 0 0 40 0 0 0 0 0 0 0 0 25 0 0 0 0 30 0 0 0 0 30 0 0 0 0 0 0 0 0 0 0 0 0 0 0 0 0 0 0 0 0 0 0 0 0 0 0 0 0 25 25 0 0 0 0 0 0 0 0 
		27 0 0 0 0 0 0 0 0 0 0 0 0 0 0 0 0 0 0 0 0 0 0 0 0 0 0 0 0 0 0 0 0 0 0 0 0 0 0 0 0 0 39 0 0 28 0 0 0 0 0 36 0 0 0 0 0 0 0 0 0 0 0 0 0 0 0 0 0 0 0 0 0 0 0 0 0 0 0 0 
		28 0 0 0 0 0 36 0 0 0 0 0 0 27 0 0 0 0 0 24 0 0 0 0 0 0 0 0 0 0 0 0 0 0 0 0 0 0 0 25 0 0 0 0 0 38 0 0 0 0 22 0 0 0 0 0 0 0 0 0 0 24 0 23 0 0 0 0 23 0 0 0 26 40 0 21 0 0 0 0 
		29 0 0 0 0 0 0 34 0 0 0 0 0 0 0 0 0 0 0 0 0 0 0 0 0 0 0 0 0 0 0 0 0 0 0 0 0 0 0 0 0 0 0 0 0 0 0 0 0 0 0 0 0 0 36 31 0 0 27 0 0 0 0 0 0 0 0 33 0 38 0 0 0 28 0 0 0 0 0 0 
		30 0 0 0 0 28 0 0 0 0 0 0 0 0 0 0 0 0 0 0 0 0 0 20 0 0 0 25 0 0 0 0 0 0 0 0 0 0 0 0 0 0 0 34 0 0 0 0 0 0 0 28 27 0 0 0 0 0 0 0 0 0 0 0 0 0 0 0 0 0 0 0 0 0 0 0 0 0 0 0 
		31 0 0 0 0 0 0 0 0 0 0 0 0 0 0 0 0 38 0 0 0 32 0 0 0 0 0 0 0 0 0 0 0 0 0 0 0 0 0 22 0 0 0 0 0 0 0 37 0 0 0 0 0 0 23 0 0 0 0 0 20 0 0 0 27 0 0 0 0 0 0 0 0 0 0 24 0 0 0 0 
		32 0 0 0 0 0 0 0 39 0 23 0 0 40 0 0 0 0 0 0 0 0 0 0 0 0 0 0 0 0 0 0 0 0 0 0 0 29 0 0 0 0 0 0 0 0 0 0 0 0 0 0 0 28 23 0 0 0 40 0 0 0 0 0 0 36 0 0 0 0 0 0 0 0 0 0 0 0 0 0 
		33 0 0 0 0 0 0 0 0 0 0 0 0 0 0 0 26 0 0 0 33 0 0 0 0 0 0 0 0 0 0 0 0 0 0 0 0 0 0 20 0 0 0 0 40 0 0 0 0 0 0 0 0 0 0 0 0 0 0 26 0 0 0 33 0 0 0 0 0 0 0 0 0 0 20 0 0 0 0 0 
		34 0 0 0 0 0 0 0 0 0 0 0 0 0 0 0 0 0 0 0 0 0 0 0 0 0 0 0 0 0 0 0 0 0 0 0 0 31 0 0 0 0 0 0 0 0 0 0 0 0 0 0 0 0 0 0 0 0 0 0 0 0 0 0 0 0 0 0 32 0 40 0 0 0 0 0 0 0 0 0 
		35 0 0 0 0 23 0 0 0 0 25 0 0 0 0 0 0 23 0 0 0 31 0 0 0 0 31 30 0 0 0 0 0 0 0 0 0 0 0 0 0 26 0 0 0 0 0 0 0 0 0 26 0 0 0 0 0 0 0 0 0 0 0 0 0 28 0 0 0 0 21 36 0 0 0 0 0 0 0 0 
		36 0 0 0 0 25 0 0 0 0 0 0 0 0 21 0 22 0 0 0 0 0 0 0 0 36 0 0 0 0 0 0 0 29 0 31 0 0 0 0 34 0 0 0 0 22 0 0 0 0 0 0 0 0 0 0 0 0 0 34 0 0 0 0 0 0 0 0 0 0 39 0 0 0 37 0 0 0 31 0 
		37 0 0 0 0 0 0 0 0 0 0 0 0 0 0 0 0 30 0 0 22 21 0 0 0 0 0 0 0 0 0 0 0 0 0 0 0 0 0 0 36 0 0 0 31 0 26 0 0 35 0 0 30 0 0 0 0 0 0 0 0 0 0 0 26 0 0 0 0 0 0 0 0 0 40 38 0 21 0 0 
		38 0 0 0 0 0 0 0 0 0 0 0 0 0 0 0 37 0 0 0 0 0 0 0 0 0 0 0 0 25 0 0 22 0 20 0 0 0 0 0 25 0 0 0 0 0 0 0 0 0 38 0 0 0 0 22 37 0 0 0 0 0 0 0 0 0 0 0 0 0 0 0 0 26 0 0 0 0 0 0 
		39 0 0 0 32 0 0 0 0 39 0 0 0 0 20 0 0 0 0 0 0 0 0 0 0 0 0 0 0 0 0 0 0 0 0 0 0 34 36 25 0 0 0 0 0 0 0 0 0 0 0 0 0 0 0 0 0 22 0 0 0 0 0 0 0 0 0 0 0 0 38 0 35 31 0 25 25 23 0 0 
		40 0 0 0 0 0 0 0 0 0 0 0 0 21 0 0 0 0 0 0 0 0 0 38 0 0 0 30 0 0 0 0 0 0 0 0 26 0 0 0 0 0 0 0 0 0 0 0 0 0 0 0 0 0 0 0 22 0 24 0 0 0 0 0 0 0 0 0 0 0 0 0 0 0 0 0 0 0 0 0 
		41 0 0 0 0 0 0 0 0 0 0 0 0 0 0 0 0 0 0 0 0 0 0 0 0 0 0 0 39 0 0 0 0 0 0 0 0 0 0 0 0 0 0 0 0 0 0 0 33 0 0 0 0 0 0 0 0 0 0 0 0 0 0 36 0 0 0 0 0 0 28 0 0 0 0 0 0 0 0 0 
		42 0 0 0 0 0 0 0 37 0 0 31 0 0 0 0 0 0 0 0 30 0 0 27 32 0 0 0 0 0 0 34 0 0 0 0 0 0 0 0 0 0 0 0 0 0 24 0 0 0 0 0 0 0 0 0 0 0 0 0 0 33 0 0 0 0 0 0 26 0 0 0 0 0 0 0 0 0 0 0 
		43 0 0 0 0 0 0 0 0 0 0 0 0 0 0 34 0 0 0 0 0 0 0 0 0 0 0 0 0 0 0 0 0 0 40 0 0 0 31 0 0 0 0 0 0 0 0 0 0 0 0 0 0 0 0 0 0 0 0 0 0 0 0 0 0 0 0 0 0 0 0 0 0 0 0 40 0 0 0 0 
		44 0 0 0 0 0 0 0 0 0 0 0 0 0 0 37 0 0 0 0 0 0 0 0 0 0 0 0 28 38 0 0 0 0 0 0 0 22 0 0 0 0 0 0 0 0 0 0 28 0 0 0 0 0 0 0 0 0 0 0 0 0 0 0 0 34 0 0 0 0 0 0 0 0 0 0 0 0 26 0 
		45 0 0 0 0 0 0 0 0 0 0 0 0 0 0 20 0 33 0 0 0 25 0 0 28 0 0 0 0 0 0 0 0 0 0 0 0 0 26 0 0 0 0 24 0 0 0 0 0 0 0 0 0 0 0 0 0 0 0 0 0 0 0 0 0 0 0 0 0 0 0 0 0 0 0 0 0 0 0 0 
		46 0 0 0 0 0 0 34 0 0 29 0 0 21 0 0 0 0 0 0 26 0 0 0 0 0 0 0 0 0 0 0 37 0 0 0 0 0 0 0 0 0 0 0 0 0 0 0 0 0 40 0 0 0 22 0 0 40 0 0 0 0 40 0 0 0 0 32 0 0 0 0 0 0 0 0 0 0 0 0 
		47 23 0 0 0 0 0 0 0 0 0 0 0 30 0 0 0 0 0 0 0 0 0 0 0 0 0 0 0 0 0 0 0 0 0 0 0 0 0 0 0 0 33 0 0 28 0 0 0 0 0 0 0 38 0 0 0 0 0 0 0 0 0 0 0 0 0 0 0 22 0 0 0 0 0 0 0 0 0 0 
		48 0 0 0 0 33 0 0 0 0 0 0 0 0 0 0 0 0 0 0 0 0 0 0 0 0 0 0 0 0 0 0 0 0 0 0 0 0 35 0 0 0 0 0 0 0 0 0 0 0 0 31 0 39 0 0 39 29 0 0 0 0 0 0 0 0 0 0 0 0 0 0 0 0 0 20 38 0 0 0 
		49 0 0 0 0 0 0 38 0 0 0 0 0 0 0 0 0 0 0 0 0 0 0 0 0 0 0 0 0 22 0 0 0 0 0 0 0 0 0 38 0 0 0 0 0 0 0 40 0 0 0 0 0 0 0 0 0 0 0 0 0 0 0 0 29 0 37 0 0 0 0 38 0 38 0 0 0 38 0 0 
		50 0 0 0 29 0 0 0 0 0 0 0 0 0 0 0 0 0 0 0 0 0 0 0 0 0 0 0 36 0 0 28 0 0 0 0 26 0 0 0 0 0 0 0 0 0 0 0 0 31 0 0 0 0 0 0 0 0 0 0 0 0 0 0 0 0 0 0 0 0 0 0 0 0 0 0 0 36 40 0 
		51 0 0 0 0 0 0 0 0 0 0 0 0 0 0 0 0 0 0 0 0 0 0 0 0 0 0 0 0 0 0 27 0 0 0 0 0 0 30 0 0 0 0 0 0 0 0 0 0 0 0 0 0 0 0 0 0 0 31 0 0 0 0 0 0 0 0 0 25 0 0 0 0 0 37 0 0 0 0 0 
		52 0 0 0 0 0 0 0 0 0 0 0 0 0 0 0 24 0 38 0 0 0 33 0 0 0 0 0 0 0 0 0 0 28 0 0 0 0 0 0 0 0 0 0 0 0 0 0 38 39 0 0 0 0 24 0 0 0 0 0 0 28 0 0 0 0 0 0 0 0 0 0 0 0 0 0 0 37 0 0 
		53 0 0 0 0 0 0 0 20 0 0 0 0 0 0 0 0 0 0 0 0 0 0 0 0 0 0 0 0 0 36 0 23 23 0 0 0 0 0 0 0 0 0 0 0 0 0 22 0 0 0 0 0 24 0 0 0 35 0 0 33 0 39 0 0 0 0 0 0 0 0 0 37 0 0 0 0 22 0 0 
		54 0 0 0 0 0 0 0 0 0 0 0 0 0 0 0 0 0 0 0 0 0 0 0 0 0 0 0 0 0 31 0 0 0 0 0 0 0 0 22 0 0 0 0 0 0 0 0 0 0 0 0 0 0 0 0 0 0 0 0 0 0 0 0 0 0 0 0 32 0 0 0 0 0 0 0 0 0 0 0 
		55 0 0 0 0 0 0 0 0 0 0 0 0 0 0 0 0 30 0 23 0 0 0 0 0 0 0 0 0 0 0 0 0 0 0 0 0 0 0 37 0 22 0 0 0 0 0 0 0 39 0 0 0 0 0 0 0 23 0 0 0 0 0 0 28 0 0 0 39 0 0 0 0 0 0 0 0 32 0 0 
		56 0 34 0 0 0 0 0 23 0 0 0 0 0 0 0 26 0 0 0 0 0 0 0 0 0 0 0 0 0 0 0 0 0 0 0 0 0 0 0 22 0 0 0 0 0 0 40 0 29 0 0 0 0 35 0 23 0 0 38 0 0 0 0 0 0 0 21 0 0 0 0 0 0 0 0 0 30 0 0 
		57 0 0 0 0 0 0 0 0 0 0 0 0 0 0 0 0 0 0 0 0 0 0 0 0 0 0 0 0 0 27 0 0 40 0 0 0 0 0 0 0 24 0 0 0 0 0 0 0 0 0 0 31 0 0 0 0 0 0 0 0 0 0 0 0 0 0 0 0 0 0 0 40 0 0 23 0 0 0 0 
		58 0 0 0 0 0 0 22 0 26 0 0 0 37 0 0 29 0 0 0 0 0 39 0 36 0 0 0 0 0 0 0 0 0 26 0 0 34 0 0 0 0 0 0 0 0 0 0 0 0 0 0 0 0 0 0 0 38 0 0 21 0 0 0 0 0 0 0 0 0 0 0 0 0 0 0 0 0 0 0 
		59 0 0 0 0 0 0 0 0 27 0 0 0 0 0 0 0 0 0 35 0 24 20 0 0 0 0 0 0 0 0 0 20 0 0 0 0 0 0 0 0 0 0 0 0 0 0 0 0 0 0 0 0 0 33 0 0 0 0 21 0 0 0 0 29 0 0 0 0 0 0 0 25 0 0 0 0 0 40 0 
		60 0 0 0 0 0 0 0 0 0 0 0 0 0 26 0 0 0 0 0 0 0 0 25 0 0 25 0 0 24 0 0 0 0 0 0 0 0 0 0 0 0 0 33 0 0 0 0 0 0 0 0 0 28 0 0 0 0 0 0 0 0 0 0 0 0 0 0 0 0 0 0 0 0 0 0 0 20 0 35 
		61 35 36 0 0 0 0 0 0 0 0 0 0 0 0 0 0 0 20 0 0 0 0 0 22 0 0 0 0 0 0 0 0 0 0 0 0 0 0 0 0 0 0 0 0 0 0 40 0 0 0 0 0 0 39 0 0 0 0 0 0 0 0 0 0 0 0 31 0 0 0 0 0 0 0 0 0 0 0 0 
		62 0 0 0 0 38 0 0 31 0 0 0 0 0 0 0 0 0 0 0 0 0 0 0 0 0 0 0 0 23 0 0 0 0 33 0 0 0 0 0 0 0 36 0 0 0 0 0 0 0 0 0 0 0 0 0 0 0 0 0 0 0 0 0 0 0 0 0 0 0 0 0 0 0 0 0 0 0 25 0 
		63 0 0 36 0 0 0 0 0 0 0 0 0 0 0 0 0 0 20 0 0 0 0 0 0 0 23 0 0 0 0 0 27 0 0 0 0 0 26 0 0 0 0 0 0 0 0 0 0 0 29 0 0 0 0 0 28 0 0 0 29 0 0 0 0 0 0 0 0 0 0 0 0 0 0 0 0 0 0 0 
		64 0 0 31 21 0 0 0 28 0 27 0 0 0 0 0 0 0 0 36 0 24 0 0 0 0 0 0 0 0 0 0 0 36 0 0 28 0 0 0 0 0 0 0 0 34 0 0 0 0 0 0 0 0 0 0 0 0 0 0 0 0 0 0 0 0 0 0 0 23 0 0 0 0 0 0 0 0 0 0 
		65 0 0 0 0 0 0 0 0 0 0 0 0 0 0 24 0 36 0 0 0 0 0 0 0 0 0 0 0 0 0 0 0 0 0 0 0 0 0 0 0 0 0 0 0 0 0 0 0 0 37 0 0 0 0 0 0 0 0 0 0 0 0 0 0 0 0 0 0 31 0 0 0 0 0 0 0 26 0 0 
		66 0 0 0 0 0 0 0 0 0 0 0 0 0 0 0 0 0 0 0 0 0 0 0 0 0 0 0 0 0 33 0 0 0 0 0 0 0 0 0 0 0 0 0 0 0 0 32 0 0 0 0 0 0 0 0 0 21 0 0 0 0 31 0 0 0 0 0 0 0 0 0 0 0 0 0 21 0 0 33 
		67 0 0 0 0 0 0 0 0 0 0 0 0 0 0 22 0 0 0 0 20 0 0 0 0 0 0 0 0 23 0 0 0 0 0 32 0 0 0 0 0 0 0 26 0 0 0 0 0 0 0 0 25 0 0 32 39 0 0 0 0 0 0 0 0 0 0 0 0 37 0 0 0 0 0 0 0 0 0 0 
		68 0 0 0 0 38 0 0 0 0 0 0 20 0 0 0 0 0 0 30 0 0 0 0 0 0 0 0 0 0 38 0 0 0 0 0 0 0 0 0 0 0 0 0 0 0 0 0 22 0 0 0 0 0 0 0 0 0 0 0 0 0 0 0 0 23 31 0 37 0 0 0 0 0 0 0 0 0 0 0 
		69 0 0 27 0 0 0 0 0 34 20 0 0 0 0 0 0 0 0 0 0 0 0 0 0 0 0 25 0 0 0 0 0 0 0 40 21 39 0 0 38 0 28 0 0 0 0 0 0 0 0 0 0 0 0 0 0 0 0 0 0 0 0 0 0 0 0 0 0 0 0 0 0 0 0 0 0 0 0 0 
		70 0 0 0 0 0 0 0 0 0 0 0 0 0 0 31 0 0 0 22 0 0 0 0 0 0 0 25 0 0 0 0 0 0 0 0 36 0 0 0 0 0 0 0 0 0 0 0 0 0 38 0 0 0 0 0 0 0 0 0 0 0 0 0 0 0 0 0 0 0 0 0 0 30 0 0 0 0 0 0 
		71 0 0 0 0 0 0 0 0 0 0 0 0 0 0 0 0 0 0 0 0 0 0 0 0 0 0 0 0 26 0 0 0 0 0 0 0 0 0 0 35 0 0 0 0 0 0 0 0 0 0 0 0 0 37 0 0 0 40 0 25 0 0 0 0 0 0 0 0 0 0 0 0 36 0 0 0 0 0 0 
		72 0 0 0 0 0 0 0 0 0 0 0 0 0 0 0 0 0 0 0 0 0 0 0 0 27 0 0 0 40 28 0 0 0 0 0 0 0 0 26 31 0 0 0 0 0 0 0 0 0 38 0 0 0 0 0 0 0 0 0 0 0 0 0 0 0 0 0 0 0 0 30 36 0 0 0 0 0 0 0 
		73 0 20 39 0 34 0 0 0 0 0 0 0 21 0 0 35 0 0 0 32 0 0 25 25 0 0 0 0 0 0 0 0 0 20 0 0 37 40 0 0 0 0 0 0 0 0 0 0 0 0 0 37 0 0 0 0 0 0 0 0 0 0 0 0 0 0 0 0 0 0 0 0 0 0 0 0 0 0 0 
		74 21 0 0 0 0 0 0 0 0 0 0 0 0 0 0 0 0 0 0 0 33 0 0 25 0 0 0 0 21 0 0 24 0 0 0 0 0 38 0 25 0 0 0 40 0 0 0 0 20 0 0 0 0 0 0 0 0 23 0 0 0 0 0 0 0 0 0 0 0 0 0 0 0 0 0 32 0 0 28 
		75 20 0 0 0 0 0 0 0 0 0 0 0 0 0 0 0 0 0 0 0 0 34 0 0 0 0 0 0 0 0 0 0 0 0 0 0 0 0 0 25 0 0 0 0 0 0 0 0 38 0 0 0 0 0 0 0 0 0 0 0 0 0 0 0 0 0 21 0 0 0 0 0 0 0 32 0 0 0 0 
		76 40 0 0 0 0 0 0 0 0 0 30 0 0 0 0 0 20 0 0 0 0 0 0 0 0 0 0 0 0 0 0 0 0 0 0 0 0 21 0 23 0 0 0 0 0 0 0 0 0 38 36 0 37 22 0 32 30 0 0 0 20 0 0 0 0 26 0 0 0 0 0 0 0 0 0 0 0 0 0 
		77 38 0 20 0 0 0 0 0 0 0 0 0 0 26 0 0 0 0 0 0 0 0 0 0 0 0 0 0 0 0 0 0 0 0 0 0 31 0 0 0 0 0 0 0 26 0 0 0 0 0 40 0 0 0 0 0 0 0 0 40 0 0 25 0 0 0 0 0 0 0 0 0 0 0 0 0 0 0 32 
		78 0 0 0 0 0 25 0 0 0 0 30 0 0 0 0 24 25 0 0 0 0 34 0 0 0 26 0 0 0 0 0 0 0 0 0 0 0 0 0 0 0 0 0 0 0 0 0 0 0 0 0 0 0 0 0 0 0 0 0 0 35 0 0 0 0 0 33 0 0 0 0 0 0 0 28 0 0 32 0 
;
